# 82568
param k := 6;
param n := 60;
param s := 1;
set E :=  (0,5) (1,4) (1,8) (1,17) (2,24) (3,9) (3,34) (5,35) (5,46) (5,56) (6,10) (6,16) (7,43) (7,46) (8,13) (8,54) (10,24) (10,53) (11,30) (11,33) (12,25) (12,30) (12,40) (13,32) (13,47) (14,20) (15,41) (16,37) (16,47) (16,57) (17,49) (17,52) (18,52) (19,54) (20,22) (20,28) (20,55) (21,25) (23,27) (23,41) (23,44) (25,38) (26,46) (28,31) (29,39) (31,41) (33,48) (34,41) (34,48) (35,51) (36,51) (37,40) (39,40) (42,46) (43,52) (45,56) (47,50) (48,50) (53,56) (56,59) (57,58);